PARAMETER_FILE = even/even_complete_graph_new/par/random191.par
PROBLEM_FILE = even/even_complete_graph_new/mat/random191.tsp
Successes/Runs = 0/10
Cost.min = 1049, Cost.avg = 1049.00, Cost.max = 1049
Gap.min = 0.0000%, Gap.avg = 0.0000%, Gap.max = 0.0000%
Trials.min = 1000, Trials.avg = 1000.0, Trials.max = 1000
Time.min = 0.75 sec., Time.avg = 0.95 sec., Time.max = 1.51 sec.
Time.total = 9.70 sec.
